c Sudoku solution
p cnf 729 0
115 0
157 0
176 0
194 0
221 0
377 0
441 0
468 0
489 0
516 0
523 0
643 0
714 0
756 0
496 0
473 0
666 0
838 0
881 0
986 0
826 0
161 0
951 0
731 0
611 0
628 0
571 0
391 0
942 0
748 0
149 0
188 0
133 0
122 0
812 0
417 0
913 0
237 0
336 0
324 0
246 0
319 0
218 0
425 0
935 0
345 0
358 0
978 0
874 0
847 0
964 0
544 0
452 0
567 0
434 0
254 0
853 0
684 0
697 0
787 0
793 0
772 0
895 0
999 0
765 0
869 0
729 0
927 0
675 0
555 0
659 0
539 0
632 0
279 0
285 0
383 0
292 0
263 0
362 0
582 0
598 0
